job_count = 35 ;
duration = [|21, 15, 7, 13, 10, 10, 10|14, 21, 13, 7, 10, 2, 2|6, 5, 4, 14, 8, 9, 13|12, 21, 4, 8, 16, 7, 2|12, 11, 12, 4, 14, 7, 2|18, 13, 16, 14, 6, 6, 9|12, 10, 18, 18, 8, 2, 7|5, 9, 5, 15, 6, 4, 11|5, 22, 20, 4, 10, 4, 12|17, 10, 2, 19, 12, 13, 12|4, 8, 14, 9, 2, 10, 13|23, 18, 7, 6, 2, 2, 12|3, 21, 10, 11, 3, 10, 7|6, 18, 4, 15, 14, 15, 11|3, 2, 19, 2, 3, 3, 10|9, 8, 18, 10, 6, 16, 12|2, 11, 16, 16, 8, 15, 14|20, 22, 15, 6, 14, 14, 4|10, 22, 7, 11, 15, 3, 2|13, 2, 9, 2, 13, 15, 12|15, 19, 12, 17, 11, 15, 4|12, 12, 3, 13, 8, 14, 13|13, 20, 12, 3, 16, 10, 2|12, 3, 7, 4, 3, 3, 6|17, 17, 19, 6, 7, 9, 6|18, 15, 5, 17, 12, 9, 10|21, 3, 11, 5, 15, 3, 6|2, 20, 8, 13, 12, 11, 10|20, 22, 19, 18, 2, 14, 2|8, 2, 14, 17, 5, 9, 6|14, 17, 3, 3, 4, 5, 13|12, 13, 2, 7, 12, 2, 5|6, 10, 2, 14, 6, 6, 3|13, 14, 6, 6, 7, 9, 12|23, 7, 2, 18, 3, 16, 12|] ;
machine_count = 7 ;
cost = [|22, 19, 28, 22, 26, 27, 42|30, 23, 21, 27, 25, 42, 34|27, 32, 22, 36, 37, 46, 34|26, 30, 28, 37, 22, 27, 28|21, 19, 19, 21, 40, 26, 42|29, 19, 27, 31, 33, 31, 35|31, 24, 31, 24, 31, 44, 52|27, 17, 27, 28, 23, 34, 46|22, 28, 26, 21, 42, 42, 51|24, 19, 34, 38, 43, 45, 53|23, 19, 30, 30, 23, 27, 53|30, 20, 22, 20, 30, 29, 51|16, 17, 29, 30, 25, 34, 43|30, 23, 34, 30, 33, 41, 34|16, 33, 32, 26, 38, 37, 29|20, 21, 22, 25, 37, 39, 43|27, 17, 23, 39, 22, 41, 48|19, 28, 23, 21, 38, 43, 33|21, 25, 21, 28, 25, 30, 35|22, 25, 28, 36, 43, 36, 32|21, 32, 19, 25, 43, 45, 35|26, 24, 28, 32, 27, 25, 50|31, 21, 31, 23, 23, 38, 39|25, 28, 20, 27, 37, 35, 46|24, 25, 19, 21, 37, 28, 49|20, 26, 27, 35, 32, 36, 38|16, 26, 32, 35, 23, 38, 52|19, 27, 32, 37, 38, 27, 33|20, 22, 26, 21, 36, 38, 31|26, 23, 26, 38, 29, 28, 33|16, 29, 26, 21, 32, 31, 36|26, 22, 25, 39, 25, 36, 28|16, 22, 33, 28, 36, 37, 51|17, 26, 19, 20, 24, 24, 27|26, 23, 24, 35, 34, 45, 43|] ;
deadline = [33, 33, 33, 33, 33, 33, 33, 33, 33, 33, 33, 33, 33, 33, 33, 33, 33, 33, 33, 33, 33, 33, 33, 33, 33, 33, 33, 33, 33, 33, 33, 33, 33, 33, 33] ;
release = [0, 0, 0, 0, 0, 0, 0, 0, 0, 0, 0, 0, 0, 0, 0, 0, 0, 0, 0, 0, 0, 0, 0, 0, 0, 0, 0, 0, 0, 0, 0, 0, 0, 0, 0] ;
resource = [|4, 4, 4, 4, 4, 4, 4|3, 3, 3, 3, 3, 3, 3|7, 7, 7, 7, 7, 7, 7|1, 1, 1, 1, 1, 1, 1|8, 8, 8, 8, 8, 8, 8|3, 3, 3, 3, 3, 3, 3|4, 4, 4, 4, 4, 4, 4|1, 1, 1, 1, 1, 1, 1|5, 5, 5, 5, 5, 5, 5|8, 8, 8, 8, 8, 8, 8|9, 9, 9, 9, 9, 9, 9|6, 6, 6, 6, 6, 6, 6|4, 4, 4, 4, 4, 4, 4|5, 5, 5, 5, 5, 5, 5|7, 7, 7, 7, 7, 7, 7|2, 2, 2, 2, 2, 2, 2|4, 4, 4, 4, 4, 4, 4|3, 3, 3, 3, 3, 3, 3|7, 7, 7, 7, 7, 7, 7|1, 1, 1, 1, 1, 1, 1|3, 3, 3, 3, 3, 3, 3|7, 7, 7, 7, 7, 7, 7|4, 4, 4, 4, 4, 4, 4|3, 3, 3, 3, 3, 3, 3|5, 5, 5, 5, 5, 5, 5|3, 3, 3, 3, 3, 3, 3|6, 6, 6, 6, 6, 6, 6|9, 9, 9, 9, 9, 9, 9|8, 8, 8, 8, 8, 8, 8|4, 4, 4, 4, 4, 4, 4|2, 2, 2, 2, 2, 2, 2|9, 9, 9, 9, 9, 9, 9|6, 6, 6, 6, 6, 6, 6|9, 9, 9, 9, 9, 9, 9|9, 9, 9, 9, 9, 9, 9|] ;
capacities = [10, 10, 10, 10, 10, 10, 10] ;
